(declare-fun var0 () String)
(assert (RegexIn var0 (RegexConcat (RegexStar (RegexUnion (RegexPlus (Str2Reg "1")) (RegexPlus (Str2Reg "22")))) (RegexPlus (RegexStar (RegexPlus (Str2Reg "000")))))))
(assert (<= 15 (Length var0)))
(check-sat)